(set-info :Origin "This instance was generated by: BanditFuzz-- an RL fuzzer for SMT solvers" )
(set-info :Author "Joe Scott, Fed Mora, Vijay Ganesh" )
(set-info :Contact "Joe Scott, joseph.scott@uwaterloo.ca")
(set-logic QF_BV)
(declare-const bool_0 Bool)
(declare-const bool_1 Bool)
(declare-const bool_2 Bool)
(declare-const bool_3 Bool)
(declare-const bool_4 Bool)
(declare-const bv_0 (_ BitVec 32))
(declare-const bv_1 (_ BitVec 32))
(declare-const bv_2 (_ BitVec 32))
(declare-const bv_3 (_ BitVec 32))
(declare-const bv_4 (_ BitVec 32))
(assert (=> (bvule (bvudiv bv_0 #x419f45ea ) (bvshl bv_2 #xd5a48b39 )) (not (bvuge bv_2 bv_2))))
(assert (xor (and (and true bool_1) (bvuge bv_0 #x48882835 )) (not (bvugt #x0322bdd7  #xa21ee265 ))))
(assert (or (or (bvugt bv_2 bv_1) (bvugt #x1d52065e  #xc0416115 )) (bvuge (bvlshr #x1490280d  #xf3fd2d92 ) (bvurem #x4cf63e3f  #xd4e5c660 ))))
(assert (bvsle (bvor (bvashr bv_4 #xeee0c1d4 ) (bvnor bv_2 #xb67a3fa1 )) (bvnand (bvlshr bv_0 bv_4) (bvxor #x75c99423  bv_0))))
(assert (bvule (bvsrem (bvand bv_0 #x0734e6b3 ) (bvshl #xb4bf48d5  bv_2)) (bvurem (bvsub bv_1 #xb1ff79be ) (bvurem bv_4 bv_1))))
(check-sat)
(exit)
